NAME: pr1002.tour
COMMENT: Best tour for pr1002.tsp (270559.0)
TYPE: TOUR
DIMENSION: 1002
TOUR_SECTION
367
366
365
364
363
362
361
360
352
351
350
345
344
341
342
343
346
347
348
349
353
359
358
354
357
355
356
660
661
662
656
655
657
658
659
642
643
644
653
654
652
647
646
645
648
651
650
649
622
621
623
624
617
618
619
620
730
731
732
616
615
614
613
612
627
628
626
625
992
633
634
632
631
630
629
611
610
609
608
607
606
605
604
603
795
796
797
798
808
807
806
805
799
800
804
803
802
801
787
786
785
784
783
781
782
912
911
910
909
915
914
913
777
776
778
779
780
760
761
762
774
775
773
772
771
770
768
766
767
769
960
959
958
957
955
956
954
953
993
961
962
963
964
965
966
967
968
969
701
700
699
704
703
702
765
764
763
1000
759
758
757
756
788
793
794
792
791
790
789
752
753
754
755
747
748
746
749
750
751
733
734
735
738
744
745
743
742
741
740
739
736
737
705
698
697
706
696
695
694
693
692
691
690
689
688
680
679
678
673
672
669
667
668
719
720
718
717
721
722
723
712
711
713
714
715
716
707
709
708
710
729
727
728
724
725
726
663
664
665
666
670
671
674
675
676
677
681
687
686
682
685
683
684
988
989
990
984
983
985
986
987
970
971
972
981
982
980
975
974
973
976
979
978
977
950
949
951
952
948
947
946
945
944
943
942
941
940
939
938
937
936
935
934
933
932
931
930
929
928
926
927
925
924
923
921
922
918
917
916
904
905
906
903
901
900
902
919
920
887
888
886
885
884
883
882
881
880
879
878
876
875
874
873
868
872
871
870
869
867
866
863
861
862
860
859
1002
858
852
851
843
842
897
898
896
894
895
844
845
848
849
850
853
857
854
855
856
864
865
847
846
893
892
877
890
891
889
899
907
908
1001
809
810
813
841
840
839
838
837
836
835
830
829
831
834
833
832
538
826
827
828
817
816
815
814
818
819
820
812
811
821
822
823
824
825
555
554
553
552
551
550
560
558
556
557
559
592
591
574
573
572
571
570
569
568
566
567
517
520
518
519
565
564
563
561
562
549
548
547
546
545
540
544
543
542
541
539
537
536
535
533
534
532
531
529
528
527
526
525
530
524
523
522
521
516
515
514
579
580
998
478
477
471
472
476
475
474
473
459
458
457
456
455
453
454
584
583
582
581
577
578
575
576
588
589
590
594
593
595
596
597
599
600
601
602
598
587
586
585
449
448
450
451
452
432
431
433
434
446
447
445
444
443
442
440
441
439
438
437
436
435
997
430
429
428
460
465
466
464
463
462
461
424
425
426
427
419
420
418
421
422
423
405
406
407
410
416
417
415
414
413
412
411
409
408
402
403
404
288
287
286
285
284
299
300
298
297
991
305
306
307
308
309
310
311
312
45
44
43
313
37
38
39
40
50
41
42
49
48
46
47
84
83
81
80
79
78
82
88
86
85
87
89
91
92
90
77
93
94
95
96
97
98
99
109
108
107
994
103
104
105
106
118
119
117
116
115
114
112
110
111
113
304
303
302
301
283
282
281
280
279
278
277
276
275
274
272
273
467
468
469
470
480
479
481
482
485
486
490
491
492
484
483
493
494
495
496
497
499
498
500
489
488
487
513
512
511
510
999
509
508
507
502
501
503
506
505
504
210
209
208
207
205
206
204
203
201
200
199
198
197
194
193
192
189
188
239
238
240
242
241
186
187
195
196
202
996
182
183
184
181
180
179
178
177
176
175
174
173
170
171
172
161
160
159
185
158
162
163
167
168
169
166
165
155
164
156
157
154
153
152
151
150
149
143
144
148
147
146
145
142
141
140
139
138
137
132
131
130
129
128
126
256
255
254
253
995
252
251
243
244
263
264
231
230
232
233
234
235
236
237
190
191
218
217
212
211
213
216
215
214
220
219
221
222
223
224
225
226
227
228
229
265
266
267
268
269
271
270
260
261
262
246
245
247
248
250
249
259
258
257
121
120
122
123
124
125
127
102
101
100
133
134
135
136
76
75
74
1
2
5
3
4
6
8
9
7
70
69
68
72
71
73
54
52
53
51
60
59
58
57
55
56
67
66
65
61
62
64
63
12
11
10
14
13
15
16
17
22
21
18
19
20
26
30
31
25
23
24
32
33
34
35
36
29
27
28
332
333
334
328
327
329
330
331
314
315
316
325
326
324
319
318
317
320
323
322
321
294
293
295
296
289
290
291
292
399
401
400
396
397
398
335
336
337
338
339
340
391
392
390
389
388
386
387
393
394
395
384
383
385
382
380
381
379
377
376
375
374
635
636
637
638
639
640
641
373
372
371
370
369
378
368
-1
EOF